(set-info :status unknown)
(declare-const symbol_10 (_ BitVec 32))
(declare-const symbol_4 (_ BitVec 32))
(declare-const symbol_0 (_ BitVec 32))
(declare-const symbol_9 (_ BitVec 32))
(declare-const symbol_11 (_ BitVec 32))
(declare-const symbol_3 (_ BitVec 32))
(declare-const symbol_1 (_ BitVec 32))
(declare-const symbol_6 (_ BitVec 32))
(declare-const symbol_2 (_ BitVec 32))
(declare-const symbol_13 (_ BitVec 32))
(declare-const symbol_7 (_ BitVec 32))
(declare-const symbol_12 (_ BitVec 32))
(declare-const symbol_8 (_ BitVec 32))
(declare-const symbol_5 (_ BitVec 32))
(assert (bvsgt symbol_13 symbol_1))
(assert (not (bvsgt symbol_12 symbol_1)))
(assert (not (bvsgt symbol_11 symbol_1)))
(assert (not (bvsgt symbol_10 symbol_1)))
(assert (not (bvsgt symbol_9 symbol_1)))
(assert (not (bvsgt symbol_8 symbol_1)))
(assert (not (bvsgt symbol_7 symbol_1)))
(assert (not (bvsgt symbol_6 symbol_1)))
(assert (not (bvsgt symbol_5 symbol_1)))
(assert (not (bvsgt symbol_4 symbol_1)))
(assert (not (bvsgt symbol_3 symbol_1)))
(assert (not (bvsgt symbol_2 symbol_1)))
(assert (not (bvsgt symbol_0 symbol_1)))
(check-sat)